(set-logic ALL)
(declare-fun var0 () String)
(assert (str.in_re var0 (re.++ (re.* (re.* (str.to_re "0"))) (re.++ (re.* (re.+ (str.to_re "1"))) (re.++ (re.union (re.union (str.to_re "222") (str.to_re "33")) (re.union (str.to_re "44") (str.to_re "555"))) (re.++ (re.* (re.+ (str.to_re "666"))) (re.++ (re.+ (re.+ (str.to_re "777"))) (re.++ (re.+ (re.* (str.to_re "888"))) (re.++ (re.* (re.union (str.to_re "9") (str.to_re "aa"))) (re.++ (re.union (re.* (str.to_re "b")) (re.* (str.to_re "ccc"))) (re.++ (re.* (re.union (str.to_re "dd") (str.to_re "eee"))) (re.++ (re.+ (re.union (str.to_re "ff") (str.to_re "g"))) (re.++ (re.+ (re.union (str.to_re "hh") (str.to_re "ii"))) (re.++ (re.+ (re.+ (str.to_re "jj"))) (re.++ (re.* (re.+ (str.to_re "kk"))) (re.++ (re.+ (re.* (str.to_re "l"))) (re.++ (re.+ (re.union (str.to_re "mm") (str.to_re "n"))) (re.++ (re.+ (re.+ (str.to_re "o"))) (re.++ (re.+ (re.* (str.to_re "ppp"))) (re.++ (re.* (re.+ (str.to_re "qq"))) (re.++ (re.union (re.* (str.to_re "r")) (re.* (str.to_re "sss"))) (re.++ (re.union (re.+ (str.to_re "tt")) (re.+ (str.to_re "u"))) (re.++ (re.* (re.+ (str.to_re "vv"))) (re.++ (re.* (re.* (str.to_re "ww"))) (re.++ (re.* (re.* (str.to_re "xx"))) (re.++ (re.+ (re.+ (str.to_re "y"))) (re.++ (re.+ (re.+ (str.to_re "z"))) (re.++ (re.+ (re.* (str.to_re "A"))) (re.++ (re.* (re.* (str.to_re "BB"))) (re.++ (re.+ (re.union (str.to_re "C") (str.to_re "DDD"))) (re.++ (re.* (re.union (str.to_re "EE") (str.to_re "F"))) (re.++ (re.union (re.union (str.to_re "GG") (str.to_re "H")) (re.union (str.to_re "I") (str.to_re "JJ"))) (re.++ (re.union (re.* (str.to_re "KKK")) (re.* (str.to_re "L"))) (re.++ (re.union (re.+ (str.to_re "MMM")) (re.+ (str.to_re "NN"))) (re.++ (re.union (re.+ (str.to_re "OOO")) (re.+ (str.to_re "P"))) (re.++ (re.+ (re.* (str.to_re "Q"))) (re.++ (re.+ (re.+ (str.to_re "RR"))) (re.++ (re.union (re.* (str.to_re "SS")) (re.* (str.to_re "TTT"))) (re.++ (re.+ (re.* (str.to_re "U"))) (re.++ (re.union (re.* (str.to_re "VVV")) (re.* (str.to_re "WW"))) (re.++ (re.* (re.+ (str.to_re "X"))) (re.++ (re.* (re.* (str.to_re "YY"))) (re.++ (re.+ (re.* (str.to_re "ZZ"))) (re.++ (re.* (re.union (str.to_re "!!!") (str.to_re """"""""))) (re.++ (re.* (re.* (str.to_re "##"))) (re.++ (re.* (re.* (str.to_re "$"))) (re.++ (re.+ (re.* (str.to_re "%"))) (re.++ (re.union (re.* (str.to_re "&&&")) (re.* (str.to_re "''"))) (re.++ (re.union (re.union (str.to_re "(") (str.to_re "))")) (re.union (str.to_re "***") (str.to_re "++"))) (re.++ (re.+ (re.+ (str.to_re ",,,"))) (re.++ (re.union (re.union (str.to_re "--") (str.to_re "...")) (re.union (str.to_re "///") (str.to_re "::"))) (re.++ (re.* (re.* (str.to_re ";;;"))) (re.++ (re.* (re.* (str.to_re "<<"))) (re.++ (re.* (re.union (str.to_re "==") (str.to_re ">>"))) (re.++ (re.+ (re.* (str.to_re "???"))) (re.++ (re.+ (re.+ (str.to_re "@"))) (re.++ (re.union (re.+ (str.to_re "[[")) (re.+ (str.to_re "\\\\\\"))) (re.++ (re.* (re.* (str.to_re "]]"))) (re.++ (re.* (re.+ (str.to_re "^^^"))) (re.++ (re.+ (re.* (str.to_re "___"))) (re.++ (re.+ (re.* (str.to_re "```"))) (re.++ (re.union (re.union (str.to_re "{{{") (str.to_re "||")) (re.union (str.to_re "}}}") (str.to_re "~"))) (re.++ (re.+ (re.union (str.to_re "0") (str.to_re "111"))) (re.++ (re.* (re.+ (str.to_re "22"))) (re.++ (re.+ (re.union (str.to_re "33") (str.to_re "4"))) (re.++ (re.union (re.+ (str.to_re "555")) (re.+ (str.to_re "666"))) (re.++ (re.* (re.union (str.to_re "77") (str.to_re "88"))) (re.++ (re.* (re.+ (str.to_re "9"))) (re.++ (re.union (re.* (str.to_re "a")) (re.* (str.to_re "b"))) (re.++ (re.* (re.+ (str.to_re "cc"))) (re.++ (re.+ (re.union (str.to_re "ddd") (str.to_re "e"))) (re.++ (re.union (re.+ (str.to_re "fff")) (re.+ (str.to_re "ggg"))) (re.++ (re.* (re.* (str.to_re "hh"))) (re.++ (re.* (re.union (str.to_re "ii") (str.to_re "jj"))) (re.++ (re.+ (re.union (str.to_re "kkk") (str.to_re "l"))) (re.++ (re.+ (re.* (str.to_re "mmm"))) (re.++ (re.+ (re.+ (str.to_re "n"))) (re.* (re.+ (str.to_re "o"))))))))))))))))))))))))))))))))))))))))))))))))))))))))))))))))))))))))))))))))
(assert (not (str.in_re var0 (re.++ (re.+ (re.* (str.to_re "0"))) (re.++ (re.* (re.union (str.to_re "1") (str.to_re "22"))) (re.++ (re.* (re.union (str.to_re "33") (str.to_re "4"))) (re.++ (re.union (re.union (str.to_re "5") (str.to_re "666")) (re.union (str.to_re "7") (str.to_re "8"))) (re.++ (re.* (re.* (str.to_re "999"))) (re.++ (re.* (re.union (str.to_re "aaa") (str.to_re "bbb"))) (re.++ (re.+ (re.* (str.to_re "cc"))) (re.++ (re.union (re.* (str.to_re "d")) (re.* (str.to_re "ee"))) (re.++ (re.* (re.+ (str.to_re "ff"))) (re.++ (re.+ (re.* (str.to_re "gg"))) (re.++ (re.union (re.+ (str.to_re "hhh")) (re.+ (str.to_re "iii"))) (re.++ (re.union (re.union (str.to_re "jjj") (str.to_re "kkk")) (re.union (str.to_re "lll") (str.to_re "m"))) (re.++ (re.union (re.+ (str.to_re "nn")) (re.+ (str.to_re "oo"))) (re.++ (re.* (re.+ (str.to_re "pp"))) (re.++ (re.* (re.union (str.to_re "qq") (str.to_re "r"))) (re.++ (re.* (re.+ (str.to_re "s"))) (re.++ (re.+ (re.union (str.to_re "t") (str.to_re "uu"))) (re.++ (re.union (re.union (str.to_re "vvv") (str.to_re "www")) (re.union (str.to_re "xxx") (str.to_re "yyy"))) (re.++ (re.union (re.union (str.to_re "zz") (str.to_re "AA")) (re.union (str.to_re "B") (str.to_re "C"))) (re.++ (re.union (re.* (str.to_re "DD")) (re.* (str.to_re "EE"))) (re.++ (re.+ (re.+ (str.to_re "FF"))) (re.++ (re.* (re.union (str.to_re "G") (str.to_re "H"))) (re.++ (re.+ (re.union (str.to_re "II") (str.to_re "JJJ"))) (re.++ (re.* (re.* (str.to_re "KKK"))) (re.++ (re.union (re.+ (str.to_re "LLL")) (re.+ (str.to_re "MMM"))) (re.++ (re.+ (re.+ (str.to_re "NNN"))) (re.++ (re.* (re.+ (str.to_re "OOO"))) (re.++ (re.+ (re.union (str.to_re "PPP") (str.to_re "QQ"))) (re.++ (re.* (re.union (str.to_re "RRR") (str.to_re "SSS"))) (re.++ (re.+ (re.union (str.to_re "TTT") (str.to_re "U"))) (re.++ (re.+ (re.+ (str.to_re "VV"))) (re.++ (re.+ (re.* (str.to_re "WW"))) (re.++ (re.+ (re.union (str.to_re "XX") (str.to_re "YYY"))) (re.++ (re.union (re.+ (str.to_re "ZZZ")) (re.+ (str.to_re "!!"))) (re.++ (re.union (re.* (str.to_re """""")) (re.* (str.to_re "##"))) (re.++ (re.+ (re.* (str.to_re "$$$"))) (re.++ (re.union (re.union (str.to_re "%%%") (str.to_re "&&&")) (re.union (str.to_re "''") (str.to_re "((("))) (re.++ (re.union (re.union (str.to_re "))") (str.to_re "***")) (re.union (str.to_re "+") (str.to_re ",,,"))) (re.++ (re.union (re.+ (str.to_re "--")) (re.+ (str.to_re "..."))) (re.++ (re.union (re.+ (str.to_re "///")) (re.+ (str.to_re ":"))) (re.++ (re.union (re.* (str.to_re ";;;")) (re.* (str.to_re "<<"))) (re.++ (re.* (re.* (str.to_re "=="))) (re.++ (re.+ (re.+ (str.to_re ">"))) (re.++ (re.union (re.+ (str.to_re "?")) (re.+ (str.to_re "@@"))) (re.++ (re.+ (re.+ (str.to_re "[["))) (re.++ (re.+ (re.union (str.to_re "\\\\") (str.to_re "]]]"))) (re.++ (re.+ (re.union (str.to_re "^^^") (str.to_re "___"))) (re.++ (re.union (re.union (str.to_re "``") (str.to_re "{")) (re.union (str.to_re "||") (str.to_re "}}"))) (re.++ (re.union (re.+ (str.to_re "~~~")) (re.+ (str.to_re "0"))) (re.++ (re.* (re.+ (str.to_re "11"))) (re.++ (re.union (re.* (str.to_re "22")) (re.* (str.to_re "333"))) (re.++ (re.* (re.+ (str.to_re "4"))) (re.++ (re.union (re.union (str.to_re "55") (str.to_re "66")) (re.union (str.to_re "7") (str.to_re "888"))) (re.++ (re.* (re.+ (str.to_re "9"))) (re.++ (re.* (re.* (str.to_re "aa"))) (re.++ (re.+ (re.+ (str.to_re "b"))) (re.++ (re.+ (re.* (str.to_re "ccc"))) (re.++ (re.+ (re.union (str.to_re "ddd") (str.to_re "eee"))) (re.++ (re.* (re.+ (str.to_re "ff"))) (re.++ (re.* (re.+ (str.to_re "ggg"))) (re.++ (re.* (re.+ (str.to_re "h"))) (re.++ (re.+ (re.+ (str.to_re "iii"))) (re.++ (re.+ (re.union (str.to_re "j") (str.to_re "kkk"))) (re.++ (re.union (re.union (str.to_re "ll") (str.to_re "mmm")) (re.union (str.to_re "nn") (str.to_re "oo"))) (re.++ (re.+ (re.union (str.to_re "pp") (str.to_re "qqq"))) (re.++ (re.+ (re.* (str.to_re "rr"))) (re.++ (re.union (re.* (str.to_re "s")) (re.* (str.to_re "t"))) (re.++ (re.+ (re.* (str.to_re "u"))) (re.++ (re.+ (re.union (str.to_re "vv") (str.to_re "w"))) (re.++ (re.union (re.* (str.to_re "xx")) (re.* (str.to_re "yyy"))) (re.++ (re.* (re.* (str.to_re "zz"))) (re.++ (re.union (re.union (str.to_re "AAA") (str.to_re "BB")) (re.union (str.to_re "CCC") (str.to_re "DD"))) (re.++ (re.* (re.+ (str.to_re "EE"))) (re.++ (re.+ (re.union (str.to_re "FF") (str.to_re "GGG"))) (re.++ (re.* (re.+ (str.to_re "HHH"))) (re.* (re.+ (str.to_re "I")))))))))))))))))))))))))))))))))))))))))))))))))))))))))))))))))))))))))))))))))
(check-sat)